55
30
0 31 33 34 35 36 39 41 43 44 49 51 52 53
1 34 35 36 38 39 41 42 44 48 49 51 52
2 31 32 33 34 35 36 38 39 41 44 48 49 50 51 53
3 31 32 35 37 38 39 41 42 43 44 45 48 49 50 51 52
4 30 32 34 35 36 38 39 41 48 51 52 53
5 30 33 34 35 36 39 41 44 45 49 51 53
6 31 33 34 35 36 39 41 42 45 49 51 52 53
7 30 31 32 33 34 35 36 39 40 44 49 51 52 53
8 34 35 36 39 40 44 45 49 51 52 53
9 30 31 35 36 37 38 39 41 44 49 52 53
10 31 33 34 36 37 38 44 45 51 52 53
11 33 34 36 37 38 44 48 49 52 54
12 30 31 33 34 36 37 39 44 45 48 51 52
13 31 32 34 39 41 42 45 48 51
14 34 38 41 42 45 48 52
15 31 33 35 38 40 41 45 48
16 31 35 36 37 44 46 49 51 53
17 32 33 37 38 41 44 51 53
18 33 34 38 39 44 48 49 52
19 30 31 33 36 37 41 42 46 48 49 51 54
20 35 43
21 31 35 39 41 49 51 53
22 32 33 36 50 54
23 32 34 40 45 47 52 53
24 34 36 42 46 48 49 52
25 30 39 44 51 53
26 42 44
27 36 45
28 39
29
